
  22   10
  10   10   10   10   10   10   10   10   10   10

   0   0   0   0   0   0   0   0   0   0   0   6 2 4 6 7 8 10 
   2  10  10  10  10  10  10  10  10  10  10   2 5 3 
  10  10  10  10  10  10  10  10  10  10  10   6 21 20 19 17 12 9 
  10  10  10  10  10  10  10  10  10  10  10   6 20 19 17 14 12 9 
   1  10  10  10  10  10  10  10  10  10  10   7 21 20 19 18 17 14 12 
   9  10  10  10  10  10  10  10  10  10  10   6 21 20 17 14 12 11 
   1  10  10  10  10  10  10  10  10  10  10   4 18 17 16 12 
  10  10  10  10  10  10  10  10  10  10  10   3 19 14 11 
   7  10  10  10  10  10  10  10  10  10  10   2 18 11 
   8  10  10  10  10  10  10  10  10  10  10   1 11 
   4  10  10  10  10  10  10  10  10  10  10   2 16 13 
   3  10  10  10  10  10  10  10  10  10  10   1 13 
   5  10  10  10  10  10  10  10  10  10  10   1 15 
   9  10  10  10  10  10  10  10  10  10  10   1 16 
   3  10  10  10  10  10  10  10  10  10  10   1 22
   5  10  10  10  10  10  10  10  10  10  10   1 22
   5  10  10  10  10  10  10  10  10  10  10   1 22
   1  10  10  10  10  10  10  10  10  10  10   1 22
   3  10  10  10  10  10  10  10  10  10  10   1 22
   4  10  10  10  10  10  10  10  10  10  10   1 22
   4  10  10  10  10  10  10  10  10  10  10   1 22
   0   0   0   0   0   0   0   0   0   0   0   0 
